proyfinal/src/viki/013/experimentInOfficeAgust.take6.output/8eb1bbc7-d772-419b-9ba6-9117007789cf.als.dat
{'cnf.clauses': '118081',
 'cnf.totvars': '69608',
 'conflict literals': '31',
 'conflicts': '15',
 'decisions': '6239',
 'memused.mb': '15.55',
 'outcome': 'UNSAT',
 'propagations': '29703',
 'restarts': '1',
 'solver.msecs': 28,
 'task.msecs': 83}
