proyfinal/src/viki/013/experimentInOfficeAgust.take6.output/8eb1bbc7-d772-419b-9ba6-9117007789cf.als.out
Reading from standard input... Use '--help' for help.
============================[ Problem Statistics ]=============================
|                                                                             |
|  Number of variables:         69608                                         |
|  Number of clauses:          118081                                         |
|  Parse time:                   0.02 s                                       |
|                                                                             |
============================[ Search Statistics ]==============================
| Conflicts |          ORIGINAL         |          LEARNT          | Progress |
|           |    Vars  Clauses Literals |    Limit  Clauses Lit/Cl |          |
===============================================================================
===============================================================================
restarts              : 1
conflicts             : 15             (523 /sec)
decisions             : 6239           (0.00 % random) (217705 /sec)
propagations          : 29703          (1036465 /sec)
conflict literals     : 31             (0.00 % deleted)
Memory used           : 15.55 MB
CPU time              : 0.028658 s

UNSATISFIABLE
